c turning on binary mode checking
c parsing input formula with 7 variables and 128 clauses
c finished parsing
c detected empty clause; start verification via backward checking
c 128 of 128 clauses in core
c 131 of 132 lemmas in core using 377 resolution steps
c 5 RAT lemmas in core; 0 redundant literals in core lemmas
s VERIFIED
c verification time: 0.068 seconds
